237154
49,43,41,83,19,28,25,55,23,33,22,82,56,17,76,67,45,13,37,18,61,38,27,81,58,16,79,2,42,69,12,47,60,78,53,24,15,59,68,5,48,31,65,44,50,4,39,63,52,8,40,32,20,46,26,21,71,54,73,1,29,10,64,70,62,14,80,36,66,7,9,72,3,30,35,11,51,74,77,75,6,57,34